p cnf 174 860
c p weight 8 1.0 0
c p weight -8 1 0
c p weight 9 0 0
c p weight -9 1 0
c p weight 12 0 0
c p weight -12 1 0
c p weight 13 1.0 0
c p weight -13 1 0
c p weight 16 -0.13356123962598324 0
c p weight -16 1 0
c p weight 17 0.9910405618689735 0
c p weight -17 1 0
c p weight 20 0 0
c p weight -20 1 0
c p weight 21 1.0 0
c p weight -21 1 0
c p weight 24 -1.0 0
c p weight -24 1 0
c p weight 25 0 0
c p weight -25 1 0
c p weight 28 1.0 0
c p weight -28 1 0
c p weight 29 0 0
c p weight -29 1 0
c p weight 32 0 0
c p weight -32 1 0
c p weight 33 1.0 0
c p weight -33 1 0
c p weight 36 -0.9915114763949924 0
c p weight -36 1 0
c p weight 37 -0.13001919926311817 0
c p weight -37 1 0
c p weight 40 0 0
c p weight -40 1 0
c p weight 41 1.0 0
c p weight -41 1 0
c p weight 44 -1.0 0
c p weight -44 1 0
c p weight 45 0 0
c p weight -45 1 0
c p weight 51 1.0 0
c p weight -51 1 0
c p weight 52 0 0
c p weight -52 1 0
c p weight 55 0 0
c p weight -55 1 0
c p weight 56 1.0 0
c p weight -56 1 0
c p weight 59 0.6676589223122142 0
c p weight -59 1 0
c p weight 60 0.7444673018050508 0
c p weight -60 1 0
c p weight 63 0 0
c p weight -63 1 0
c p weight 64 1.0 0
c p weight -64 1 0
c p weight 67 -1.0 0
c p weight -67 1 0
c p weight 68 0 0
c p weight -68 1 0
c p weight 71 1.0 0
c p weight -71 1 0
c p weight 72 0 0
c p weight -72 1 0
c p weight 75 0 0
c p weight -75 1 0
c p weight 76 1.0 0
c p weight -76 1 0
c p weight 79 0.007515356911958584 0
c p weight -79 1 0
c p weight 80 0.9999717593064745 0
c p weight -80 1 0
c p weight 83 0 0
c p weight -83 1 0
c p weight 84 1.0 0
c p weight -84 1 0
c p weight 87 -1.0 0
c p weight -87 1 0
c p weight 88 0 0
c p weight -88 1 0
c p weight 94 1.0 0
c p weight -94 1 0
c p weight 95 0 0
c p weight -95 1 0
c p weight 98 0 0
c p weight -98 1 0
c p weight 99 1.0 0
c p weight -99 1 0
c p weight 102 0.9999560013841363 0
c p weight -102 1 0
c p weight 103 -0.009380580784219286 0
c p weight -103 1 0
c p weight 106 0 0
c p weight -106 1 0
c p weight 107 1.0 0
c p weight -107 1 0
c p weight 110 -1.0 0
c p weight -110 1 0
c p weight 111 0 0
c p weight -111 1 0
c p weight 114 1.0 0
c p weight -114 1 0
c p weight 115 0 0
c p weight -115 1 0
c p weight 118 0 0
c p weight -118 1 0
c p weight 119 1.0 0
c p weight -119 1 0
c p weight 122 -0.15769632003857545 0
c p weight -122 1 0
c p weight 123 -0.9874876559462863 0
c p weight -123 1 0
c p weight 126 0 0
c p weight -126 1 0
c p weight 127 1.0 0
c p weight -127 1 0
c p weight 130 -1.0 0
c p weight -130 1 0
c p weight 131 0 0
c p weight -131 1 0
c p weight 137 1.0 0
c p weight -137 1 0
c p weight 138 0 0
c p weight -138 1 0
c p weight 141 0 0
c p weight -141 1 0
c p weight 142 1.0 0
c p weight -142 1 0
c p weight 145 -0.32056948953638575 0
c p weight -145 1 0
c p weight 146 -0.9472250009255356 0
c p weight -146 1 0
c p weight 149 0 0
c p weight -149 1 0
c p weight 150 1.0 0
c p weight -150 1 0
c p weight 153 -1.0 0
c p weight -153 1 0
c p weight 154 0 0
c p weight -154 1 0
c p weight 157 1.0 0
c p weight -157 1 0
c p weight 158 0 0
c p weight -158 1 0
c p weight 161 0 0
c p weight -161 1 0
c p weight 162 1.0 0
c p weight -162 1 0
c p weight 165 -0.0661181473607896 0
c p weight -165 1 0
c p weight 166 0.9978118011877676 0
c p weight -166 1 0
c p weight 169 0 0
c p weight -169 1 0
c p weight 170 1.0 0
c p weight -170 1 0
c p weight 173 -1.0 0
c p weight -173 1 0
c p weight 174 0 0
c p weight -174 1 0
6 -5 1 0
6 -5 2 0
-6 5 1 0
-6 5 2 0
6 -7 -5 0
-6 -7 5 0
6 7 5 -1 -2 0
-6 7 -5 -1 -2 0
7 1 -2 0
-7 1 2 0
-8 1 0
7 -8 -2 0
-7 -8 2 0
7 8 -1 2 0
-7 8 -1 -2 0
-9 1 0
7 -9 2 0
-7 -9 -2 0
7 9 -1 -2 0
-7 9 -1 2 0
10 11 -6 0
10 -6 7 0
-10 11 6 0
-10 6 7 0
10 -6 -1 0
-10 6 -1 0
10 -11 6 1 -7 0
-10 -11 -6 1 -7 0
11 -1 7 0
-11 1 7 0
-12 7 0
11 -12 -1 0
-11 -12 1 0
11 12 1 -7 0
-11 12 -1 -7 0
-13 7 0
11 -13 1 0
-11 -13 -1 0
11 13 -1 -7 0
-11 13 1 -7 0
14 -10 11 0
14 -10 7 0
-14 10 11 0
-14 10 7 0
14 -15 -10 0
-14 -15 10 0
14 15 10 -11 -7 0
-14 15 -10 -11 -7 0
15 11 -7 0
-15 11 7 0
-16 11 0
15 -16 -7 0
-15 -16 7 0
15 16 -11 7 0
-15 16 -11 -7 0
-17 11 0
15 -17 7 0
-15 -17 -7 0
15 17 -11 -7 0
-15 17 -11 7 0
18 19 -14 0
18 -14 15 0
-18 19 14 0
-18 14 15 0
18 -14 -11 0
-18 14 -11 0
18 -19 14 11 -15 0
-18 -19 -14 11 -15 0
19 -11 15 0
-19 11 15 0
-20 15 0
19 -20 -11 0
-19 -20 11 0
19 20 11 -15 0
-19 20 -11 -15 0
-21 15 0
19 -21 11 0
-19 -21 -11 0
19 21 -11 -15 0
-19 21 11 -15 0
22 -18 19 0
22 -18 15 0
-22 18 19 0
-22 18 15 0
22 -23 -18 0
-22 -23 18 0
22 23 18 -19 -15 0
-22 23 -18 -19 -15 0
23 19 -15 0
-23 19 15 0
-24 19 0
23 -24 -15 0
-23 -24 15 0
23 24 -19 15 0
-23 24 -19 -15 0
-25 19 0
23 -25 15 0
-23 -25 -15 0
23 25 -19 -15 0
-23 25 -19 15 0
26 -22 3 0
26 -22 4 0
-26 22 3 0
-26 22 4 0
26 -27 -22 0
-26 -27 22 0
26 27 22 -3 -4 0
-26 27 -22 -3 -4 0
27 3 -4 0
-27 3 4 0
-28 3 0
27 -28 -4 0
-27 -28 4 0
27 28 -3 4 0
-27 28 -3 -4 0
-29 3 0
27 -29 4 0
-27 -29 -4 0
27 29 -3 -4 0
-27 29 -3 4 0
30 31 -26 0
30 -26 27 0
-30 31 26 0
-30 26 27 0
30 -26 -3 0
-30 26 -3 0
30 -31 26 3 -27 0
-30 -31 -26 3 -27 0
31 -3 27 0
-31 3 27 0
-32 27 0
31 -32 -3 0
-31 -32 3 0
31 32 3 -27 0
-31 32 -3 -27 0
-33 27 0
31 -33 3 0
-31 -33 -3 0
31 33 -3 -27 0
-31 33 3 -27 0
34 -30 31 0
34 -30 27 0
-34 30 31 0
-34 30 27 0
34 -35 -30 0
-34 -35 30 0
34 35 30 -31 -27 0
-34 35 -30 -31 -27 0
35 31 -27 0
-35 31 27 0
-36 31 0
35 -36 -27 0
-35 -36 27 0
35 36 -31 27 0
-35 36 -31 -27 0
-37 31 0
35 -37 27 0
-35 -37 -27 0
35 37 -31 -27 0
-35 37 -31 27 0
38 39 -34 0
38 -34 35 0
-38 39 34 0
-38 34 35 0
38 -34 -31 0
-38 34 -31 0
38 -39 34 31 -35 0
-38 -39 -34 31 -35 0
39 -31 35 0
-39 31 35 0
-40 35 0
39 -40 -31 0
-39 -40 31 0
39 40 31 -35 0
-39 40 -31 -35 0
-41 35 0
39 -41 31 0
-39 -41 -31 0
39 41 -31 -35 0
-39 41 31 -35 0
42 -38 39 0
42 -38 35 0
-42 38 39 0
-42 38 35 0
42 -43 -38 0
-42 -43 38 0
42 43 38 -39 -35 0
-42 43 -38 -39 -35 0
43 39 -35 0
-43 39 35 0
-44 39 0
43 -44 -35 0
-43 -44 35 0
43 44 -39 35 0
-43 44 -39 -35 0
-45 39 0
43 -45 35 0
-43 -45 -35 0
43 45 -39 -35 0
-43 45 -39 35 0
46 -42 19 0
46 -42 43 0
-46 42 19 0
-46 42 43 0
46 -42 39 -23 0
46 -42 -39 23 0
-46 42 39 -23 0
-46 42 -39 23 0
46 42 -19 39 23 -43 0
46 42 -19 -39 -23 -43 0
-46 -42 -19 39 23 -43 0
-46 -42 -19 -39 -23 -43 0
48 19 -39 0
48 -19 39 0
-48 19 39 0
-48 -19 -39 0
47 23 -43 0
47 -23 43 0
-47 23 43 0
-47 -23 -43 0
49 -46 19 0
49 -46 47 0
-49 46 19 0
-49 46 47 0
49 -50 -46 0
-49 -50 46 0
49 50 46 -19 -47 0
-49 50 -46 -19 -47 0
50 19 -47 0
-50 19 47 0
-51 19 0
50 -51 -47 0
-50 -51 47 0
50 51 -19 47 0
-50 51 -19 -47 0
-52 19 0
50 -52 47 0
-50 -52 -47 0
50 52 -19 -47 0
-50 52 -19 47 0
53 54 -49 0
53 -49 50 0
-53 54 49 0
-53 49 50 0
53 -49 -19 0
-53 49 -19 0
53 -54 49 19 -50 0
-53 -54 -49 19 -50 0
54 -19 50 0
-54 19 50 0
-55 50 0
54 -55 -19 0
-54 -55 19 0
54 55 19 -50 0
-54 55 -19 -50 0
-56 50 0
54 -56 19 0
-54 -56 -19 0
54 56 -19 -50 0
-54 56 19 -50 0
57 -53 54 0
57 -53 50 0
-57 53 54 0
-57 53 50 0
57 -58 -53 0
-57 -58 53 0
57 58 53 -54 -50 0
-57 58 -53 -54 -50 0
58 54 -50 0
-58 54 50 0
-59 54 0
58 -59 -50 0
-58 -59 50 0
58 59 -54 50 0
-58 59 -54 -50 0
-60 54 0
58 -60 50 0
-58 -60 -50 0
58 60 -54 -50 0
-58 60 -54 50 0
61 62 -57 0
61 -57 58 0
-61 62 57 0
-61 57 58 0
61 -57 -54 0
-61 57 -54 0
61 -62 57 54 -58 0
-61 -62 -57 54 -58 0
62 -54 58 0
-62 54 58 0
-63 58 0
62 -63 -54 0
-62 -63 54 0
62 63 54 -58 0
-62 63 -54 -58 0
-64 58 0
62 -64 54 0
-62 -64 -54 0
62 64 -54 -58 0
-62 64 54 -58 0
65 -61 62 0
65 -61 58 0
-65 61 62 0
-65 61 58 0
65 -66 -61 0
-65 -66 61 0
65 66 61 -62 -58 0
-65 66 -61 -62 -58 0
66 62 -58 0
-66 62 58 0
-67 62 0
66 -67 -58 0
-66 -67 58 0
66 67 -62 58 0
-66 67 -62 -58 0
-68 62 0
66 -68 58 0
-66 -68 -58 0
66 68 -62 -58 0
-66 68 -62 58 0
69 -65 48 0
69 -65 43 0
-69 65 48 0
-69 65 43 0
69 -70 -65 0
-69 -70 65 0
69 70 65 -48 -43 0
-69 70 -65 -48 -43 0
70 48 -43 0
-70 48 43 0
-71 48 0
70 -71 -43 0
-70 -71 43 0
70 71 -48 43 0
-70 71 -48 -43 0
-72 48 0
70 -72 43 0
-70 -72 -43 0
70 72 -48 -43 0
-70 72 -48 43 0
73 74 -69 0
73 -69 70 0
-73 74 69 0
-73 69 70 0
73 -69 -48 0
-73 69 -48 0
73 -74 69 48 -70 0
-73 -74 -69 48 -70 0
74 -48 70 0
-74 48 70 0
-75 70 0
74 -75 -48 0
-74 -75 48 0
74 75 48 -70 0
-74 75 -48 -70 0
-76 70 0
74 -76 48 0
-74 -76 -48 0
74 76 -48 -70 0
-74 76 48 -70 0
77 -73 74 0
77 -73 70 0
-77 73 74 0
-77 73 70 0
77 -78 -73 0
-77 -78 73 0
77 78 73 -74 -70 0
-77 78 -73 -74 -70 0
78 74 -70 0
-78 74 70 0
-79 74 0
78 -79 -70 0
-78 -79 70 0
78 79 -74 70 0
-78 79 -74 -70 0
-80 74 0
78 -80 70 0
-78 -80 -70 0
78 80 -74 -70 0
-78 80 -74 70 0
81 82 -77 0
81 -77 78 0
-81 82 77 0
-81 77 78 0
81 -77 -74 0
-81 77 -74 0
81 -82 77 74 -78 0
-81 -82 -77 74 -78 0
82 -74 78 0
-82 74 78 0
-83 78 0
82 -83 -74 0
-82 -83 74 0
82 83 74 -78 0
-82 83 -74 -78 0
-84 78 0
82 -84 74 0
-82 -84 -74 0
82 84 -74 -78 0
-82 84 74 -78 0
85 -81 82 0
85 -81 78 0
-85 81 82 0
-85 81 78 0
85 -86 -81 0
-85 -86 81 0
85 86 81 -82 -78 0
-85 86 -81 -82 -78 0
86 82 -78 0
-86 82 78 0
-87 82 0
86 -87 -78 0
-86 -87 78 0
86 87 -82 78 0
-86 87 -82 -78 0
-88 82 0
86 -88 78 0
-86 -88 -78 0
86 88 -82 -78 0
-86 88 -82 78 0
89 -85 62 0
89 -85 86 0
-89 85 62 0
-89 85 86 0
89 -85 82 -66 0
89 -85 -82 66 0
-89 85 82 -66 0
-89 85 -82 66 0
89 85 -62 82 66 -86 0
89 85 -62 -82 -66 -86 0
-89 -85 -62 82 66 -86 0
-89 -85 -62 -82 -66 -86 0
91 62 -82 0
91 -62 82 0
-91 62 82 0
-91 -62 -82 0
90 66 -86 0
90 -66 86 0
-90 66 86 0
-90 -66 -86 0
92 -89 62 0
92 -89 90 0
-92 89 62 0
-92 89 90 0
92 -93 -89 0
-92 -93 89 0
92 93 89 -62 -90 0
-92 93 -89 -62 -90 0
93 62 -90 0
-93 62 90 0
-94 62 0
93 -94 -90 0
-93 -94 90 0
93 94 -62 90 0
-93 94 -62 -90 0
-95 62 0
93 -95 90 0
-93 -95 -90 0
93 95 -62 -90 0
-93 95 -62 90 0
96 97 -92 0
96 -92 93 0
-96 97 92 0
-96 92 93 0
96 -92 -62 0
-96 92 -62 0
96 -97 92 62 -93 0
-96 -97 -92 62 -93 0
97 -62 93 0
-97 62 93 0
-98 93 0
97 -98 -62 0
-97 -98 62 0
97 98 62 -93 0
-97 98 -62 -93 0
-99 93 0
97 -99 62 0
-97 -99 -62 0
97 99 -62 -93 0
-97 99 62 -93 0
100 -96 97 0
100 -96 93 0
-100 96 97 0
-100 96 93 0
100 -101 -96 0
-100 -101 96 0
100 101 96 -97 -93 0
-100 101 -96 -97 -93 0
101 97 -93 0
-101 97 93 0
-102 97 0
101 -102 -93 0
-101 -102 93 0
101 102 -97 93 0
-101 102 -97 -93 0
-103 97 0
101 -103 93 0
-101 -103 -93 0
101 103 -97 -93 0
-101 103 -97 93 0
104 105 -100 0
104 -100 101 0
-104 105 100 0
-104 100 101 0
104 -100 -97 0
-104 100 -97 0
104 -105 100 97 -101 0
-104 -105 -100 97 -101 0
105 -97 101 0
-105 97 101 0
-106 101 0
105 -106 -97 0
-105 -106 97 0
105 106 97 -101 0
-105 106 -97 -101 0
-107 101 0
105 -107 97 0
-105 -107 -97 0
105 107 -97 -101 0
-105 107 97 -101 0
108 -104 105 0
108 -104 101 0
-108 104 105 0
-108 104 101 0
108 -109 -104 0
-108 -109 104 0
108 109 104 -105 -101 0
-108 109 -104 -105 -101 0
109 105 -101 0
-109 105 101 0
-110 105 0
109 -110 -101 0
-109 -110 101 0
109 110 -105 101 0
-109 110 -105 -101 0
-111 105 0
109 -111 101 0
-109 -111 -101 0
109 111 -105 -101 0
-109 111 -105 101 0
112 -108 91 0
112 -108 86 0
-112 108 91 0
-112 108 86 0
112 -113 -108 0
-112 -113 108 0
112 113 108 -91 -86 0
-112 113 -108 -91 -86 0
113 91 -86 0
-113 91 86 0
-114 91 0
113 -114 -86 0
-113 -114 86 0
113 114 -91 86 0
-113 114 -91 -86 0
-115 91 0
113 -115 86 0
-113 -115 -86 0
113 115 -91 -86 0
-113 115 -91 86 0
116 117 -112 0
116 -112 113 0
-116 117 112 0
-116 112 113 0
116 -112 -91 0
-116 112 -91 0
116 -117 112 91 -113 0
-116 -117 -112 91 -113 0
117 -91 113 0
-117 91 113 0
-118 113 0
117 -118 -91 0
-117 -118 91 0
117 118 91 -113 0
-117 118 -91 -113 0
-119 113 0
117 -119 91 0
-117 -119 -91 0
117 119 -91 -113 0
-117 119 91 -113 0
120 -116 117 0
120 -116 113 0
-120 116 117 0
-120 116 113 0
120 -121 -116 0
-120 -121 116 0
120 121 116 -117 -113 0
-120 121 -116 -117 -113 0
121 117 -113 0
-121 117 113 0
-122 117 0
121 -122 -113 0
-121 -122 113 0
121 122 -117 113 0
-121 122 -117 -113 0
-123 117 0
121 -123 113 0
-121 -123 -113 0
121 123 -117 -113 0
-121 123 -117 113 0
124 125 -120 0
124 -120 121 0
-124 125 120 0
-124 120 121 0
124 -120 -117 0
-124 120 -117 0
124 -125 120 117 -121 0
-124 -125 -120 117 -121 0
125 -117 121 0
-125 117 121 0
-126 121 0
125 -126 -117 0
-125 -126 117 0
125 126 117 -121 0
-125 126 -117 -121 0
-127 121 0
125 -127 117 0
-125 -127 -117 0
125 127 -117 -121 0
-125 127 117 -121 0
128 -124 125 0
128 -124 121 0
-128 124 125 0
-128 124 121 0
128 -129 -124 0
-128 -129 124 0
128 129 124 -125 -121 0
-128 129 -124 -125 -121 0
129 125 -121 0
-129 125 121 0
-130 125 0
129 -130 -121 0
-129 -130 121 0
129 130 -125 121 0
-129 130 -125 -121 0
-131 125 0
129 -131 121 0
-129 -131 -121 0
129 131 -125 -121 0
-129 131 -125 121 0
132 -128 105 0
132 -128 129 0
-132 128 105 0
-132 128 129 0
132 -128 125 -109 0
132 -128 -125 109 0
-132 128 125 -109 0
-132 128 -125 109 0
132 128 -105 125 109 -129 0
132 128 -105 -125 -109 -129 0
-132 -128 -105 125 109 -129 0
-132 -128 -105 -125 -109 -129 0
134 105 -125 0
134 -105 125 0
-134 105 125 0
-134 -105 -125 0
133 109 -129 0
133 -109 129 0
-133 109 129 0
-133 -109 -129 0
135 -132 105 0
135 -132 133 0
-135 132 105 0
-135 132 133 0
135 -136 -132 0
-135 -136 132 0
135 136 132 -105 -133 0
-135 136 -132 -105 -133 0
136 105 -133 0
-136 105 133 0
-137 105 0
136 -137 -133 0
-136 -137 133 0
136 137 -105 133 0
-136 137 -105 -133 0
-138 105 0
136 -138 133 0
-136 -138 -133 0
136 138 -105 -133 0
-136 138 -105 133 0
139 140 -135 0
139 -135 136 0
-139 140 135 0
-139 135 136 0
139 -135 -105 0
-139 135 -105 0
139 -140 135 105 -136 0
-139 -140 -135 105 -136 0
140 -105 136 0
-140 105 136 0
-141 136 0
140 -141 -105 0
-140 -141 105 0
140 141 105 -136 0
-140 141 -105 -136 0
-142 136 0
140 -142 105 0
-140 -142 -105 0
140 142 -105 -136 0
-140 142 105 -136 0
143 -139 140 0
143 -139 136 0
-143 139 140 0
-143 139 136 0
143 -144 -139 0
-143 -144 139 0
143 144 139 -140 -136 0
-143 144 -139 -140 -136 0
144 140 -136 0
-144 140 136 0
-145 140 0
144 -145 -136 0
-144 -145 136 0
144 145 -140 136 0
-144 145 -140 -136 0
-146 140 0
144 -146 136 0
-144 -146 -136 0
144 146 -140 -136 0
-144 146 -140 136 0
147 148 -143 0
147 -143 144 0
-147 148 143 0
-147 143 144 0
147 -143 -140 0
-147 143 -140 0
147 -148 143 140 -144 0
-147 -148 -143 140 -144 0
148 -140 144 0
-148 140 144 0
-149 144 0
148 -149 -140 0
-148 -149 140 0
148 149 140 -144 0
-148 149 -140 -144 0
-150 144 0
148 -150 140 0
-148 -150 -140 0
148 150 -140 -144 0
-148 150 140 -144 0
151 -147 148 0
151 -147 144 0
-151 147 148 0
-151 147 144 0
151 -152 -147 0
-151 -152 147 0
151 152 147 -148 -144 0
-151 152 -147 -148 -144 0
152 148 -144 0
-152 148 144 0
-153 148 0
152 -153 -144 0
-152 -153 144 0
152 153 -148 144 0
-152 153 -148 -144 0
-154 148 0
152 -154 144 0
-152 -154 -144 0
152 154 -148 -144 0
-152 154 -148 144 0
155 -151 134 0
155 -151 129 0
-155 151 134 0
-155 151 129 0
155 -156 -151 0
-155 -156 151 0
155 156 151 -134 -129 0
-155 156 -151 -134 -129 0
156 134 -129 0
-156 134 129 0
-157 134 0
156 -157 -129 0
-156 -157 129 0
156 157 -134 129 0
-156 157 -134 -129 0
-158 134 0
156 -158 129 0
-156 -158 -129 0
156 158 -134 -129 0
-156 158 -134 129 0
159 160 -155 0
159 -155 156 0
-159 160 155 0
-159 155 156 0
159 -155 -134 0
-159 155 -134 0
159 -160 155 134 -156 0
-159 -160 -155 134 -156 0
160 -134 156 0
-160 134 156 0
-161 156 0
160 -161 -134 0
-160 -161 134 0
160 161 134 -156 0
-160 161 -134 -156 0
-162 156 0
160 -162 134 0
-160 -162 -134 0
160 162 -134 -156 0
-160 162 134 -156 0
163 -159 160 0
163 -159 156 0
-163 159 160 0
-163 159 156 0
163 -164 -159 0
-163 -164 159 0
163 164 159 -160 -156 0
-163 164 -159 -160 -156 0
164 160 -156 0
-164 160 156 0
-165 160 0
164 -165 -156 0
-164 -165 156 0
164 165 -160 156 0
-164 165 -160 -156 0
-166 160 0
164 -166 156 0
-164 -166 -156 0
164 166 -160 -156 0
-164 166 -160 156 0
167 168 -163 0
167 -163 164 0
-167 168 163 0
-167 163 164 0
167 -163 -160 0
-167 163 -160 0
167 -168 163 160 -164 0
-167 -168 -163 160 -164 0
168 -160 164 0
-168 160 164 0
-169 164 0
168 -169 -160 0
-168 -169 160 0
168 169 160 -164 0
-168 169 -160 -164 0
-170 164 0
168 -170 160 0
-168 -170 -160 0
168 170 -160 -164 0
-168 170 160 -164 0
171 -167 168 0
171 -167 164 0
-171 167 168 0
-171 167 164 0
171 -172 -167 0
-171 -172 167 0
171 172 167 -168 -164 0
-171 172 -167 -168 -164 0
172 168 -164 0
-172 168 164 0
-173 168 0
172 -173 -164 0
-172 -173 164 0
172 173 -168 164 0
-172 173 -168 -164 0
-174 168 0
172 -174 164 0
-172 -174 -164 0
172 174 -168 -164 0
-172 174 -168 164 0
